NAME : XML100_1256_24
DIMENSION : 101
NB_CLUSTERS : 3
CLUSTERING_ALG : KMedoids
CLUSTERING_PARAMS : k(2)
CLUSTERS
1 0
2 3 6 8 9 10 11 12 13 15 16 17 18 19 21 22 23 26 27 28 29 30 32 34 35 37 43 44 46 47 53 54 55 57 58 59 61 62 63 64 67 68 69 71 72 73 75 76 77 78 80 81 83 85 86 88 95 96 97 99
3 1 2 4 5 7 14 20 24 25 31 33 36 38 39 40 41 42 45 48 49 50 51 52 56 60 65 66 70 74 79 82 84 87 89 90 91 92 93 94 98 100
EOF